letting n =  10
letting blocks =  [[1, 3], [2, 1], [2, 3], [2, 10], [3, 8], [3, 9], [4, 3], [4, 5], [4, 6], [4, 7], [4, 8], [4, 10], [5, 3], [5, 4], [5, 5], [5, 6], [5, 7], [5, 9], [6, 5], [6, 7], [7, 4], [7, 6], [7, 8], [8, 7], [8, 8], [8, 9], [9, 2], [9, 4], [9, 7], [9, 8], [10, 3], [10, 4], [10, 5], [10, 7], [10, 9], [10, 10]]
